30
1 0 29
2 0 31
2 1 10
3 0 4
3 1 41
3 2 11
4 0 3
4 1 14
4 2 50
4 3 1
5 0 16
5 1 48
5 2 49
5 3 54
5 4 5
6 0 21
6 1 20
6 2 15
6 3 12
6 4 26
6 5 33
7 0 50
7 1 53
7 2 26
7 3 4
7 4 18
7 5 14
7 6 5
8 0 33
8 1 33
8 2 46
8 3 41
8 4 21
8 5 52
8 6 58
8 7 53
9 0 51
9 1 44
9 2 48
9 3 39
9 4 3
9 5 25
9 6 13
9 7 16
9 8 33
10 0 8
10 1 49
10 2 48
10 3 43
10 4 5
10 5 50
10 6 56
10 7 55
10 8 47
10 9 46
11 0 52
11 1 47
11 2 34
11 3 51
11 4 24
11 5 25
11 6 41
11 7 9
11 8 56
11 9 28
11 10 13
12 0 24
12 1 13
12 2 54
12 3 14
12 4 48
12 5 30
12 6 35
12 7 34
12 8 32
12 9 26
12 10 4
12 11 5
13 0 1
13 1 10
13 2 25
13 3 18
13 4 25
13 5 15
13 6 49
13 7 22
13 8 40
13 9 15
13 10 12
13 11 45
13 12 4
14 0 18
14 1 4
14 2 42
14 3 54
14 4 19
14 5 41
14 6 46
14 7 31
14 8 35
14 9 11
14 10 48
14 11 51
14 12 12
14 13 29
15 0 7
15 1 42
15 2 57
15 3 10
15 4 52
15 5 37
15 6 18
15 7 18
15 8 1
15 9 29
15 10 3
15 11 28
15 12 38
15 13 44
15 14 12
16 0 3
16 1 37
16 2 33
16 3 55
16 4 9
16 5 10
16 6 32
16 7 32
16 8 55
16 9 33
16 10 33
16 11 13
16 12 12
16 13 7
16 14 7
16 15 25
17 0 16
17 1 57
17 2 56
17 3 49
17 4 49
17 5 6
17 6 14
17 7 43
17 8 15
17 9 8
17 10 9
17 11 16
17 12 7
17 13 18
17 14 48
17 15 16
17 16 33
18 0 22
18 1 19
18 2 25
18 3 25
18 4 9
18 5 21
18 6 44
18 7 1
18 8 29
18 9 38
18 10 1
18 11 28
18 12 22
18 13 47
18 14 26
18 15 47
18 16 41
18 17 7
19 0 37
19 1 58
19 2 56
19 3 39
19 4 53
19 5 54
19 6 44
19 7 41
19 8 12
19 9 53
19 10 44
19 11 16
19 12 16
19 13 10
19 14 52
19 15 14
19 16 8
19 17 23
19 18 40
20 0 23
20 1 30
20 2 20
20 3 50
20 4 31
20 5 1
20 6 14
20 7 45
20 8 8
20 9 23
20 10 2
20 11 35
20 12 22
20 13 50
20 14 12
20 15 46
20 16 50
20 17 26
20 18 29
20 19 20
21 0 34
21 1 52
21 2 38
21 3 29
21 4 43
21 5 29
21 6 16
21 7 4
21 8 56
21 9 58
21 10 8
21 11 52
21 12 12
21 13 16
21 14 47
21 15 24
21 16 27
21 17 33
21 18 14
21 19 43
21 20 51
22 0 32
22 1 44
22 2 12
22 3 5
22 4 9
22 5 30
22 6 6
22 7 35
22 8 23
22 9 28
22 10 6
22 11 2
22 12 21
22 13 32
22 14 24
22 15 53
22 16 1
22 17 4
22 18 2
22 19 43
22 20 42
22 21 8
23 0 20
23 1 31
23 2 33
23 3 28
23 4 48
23 5 52
23 6 41
23 7 35
23 8 9
23 9 19
23 10 35
23 11 28
23 12 21
23 13 27
23 14 37
23 15 15
23 16 4
23 17 21
23 18 34
23 19 29
23 20 9
23 21 53
23 22 54
24 0 58
24 1 1
24 2 21
24 3 56
24 4 15
24 5 30
24 6 3
24 7 9
24 8 57
24 9 17
24 10 12
24 11 17
24 12 26
24 13 48
24 14 16
24 15 20
24 16 27
24 17 41
24 18 58
24 19 55
24 20 6
24 21 38
24 22 31
24 23 10
25 0 44
25 1 39
25 2 58
25 3 48
25 4 1
25 5 56
25 6 28
25 7 27
25 8 23
25 9 42
25 10 13
25 11 47
25 12 53
25 13 2
25 14 30
25 15 29
25 16 12
25 17 1
25 18 50
25 19 3
25 20 33
25 21 35
25 22 51
25 23 35
25 24 51
26 0 7
26 1 23
26 2 56
26 3 44
26 4 38
26 5 41
26 6 37
26 7 11
26 8 58
26 9 36
26 10 17
26 11 12
26 12 27
26 13 12
26 14 38
26 15 50
26 16 10
26 17 4
26 18 39
26 19 11
26 20 13
26 21 37
26 22 36
26 23 4
26 24 2
26 25 42
27 0 20
27 1 14
27 2 56
27 3 31
27 4 6
27 5 31
27 6 29
27 7 50
27 8 18
27 9 35
27 10 9
27 11 42
27 12 12
27 13 19
27 14 34
27 15 16
27 16 40
27 17 40
27 18 26
27 19 27
27 20 20
27 21 6
27 22 26
27 23 40
27 24 33
27 25 8
27 26 7
28 0 32
28 1 18
28 2 17
28 3 27
28 4 23
28 5 54
28 6 13
28 7 42
28 8 25
28 9 12
28 10 34
28 11 32
28 12 16
28 13 10
28 14 32
28 15 29
28 16 20
28 17 37
28 18 17
28 19 38
28 20 48
28 21 35
28 22 15
28 23 47
28 24 26
28 25 44
28 26 8
28 27 26
29 0 46
29 1 39
29 2 30
29 3 25
29 4 49
29 5 35
29 6 51
29 7 11
29 8 40
29 9 4
29 10 21
29 11 54
29 12 52
29 13 19
29 14 21
29 15 51
29 16 51
29 17 33
29 18 5
29 19 47
29 20 11
29 21 32
29 22 24
29 23 23
29 24 39
29 25 46
29 26 45
29 27 47
29 28 47
